c automorphism group size 10
p cnf 35 190
1 2 3 4 5 6 7 0
8 9 10 11 12 13 14 0
15 16 17 18 19 20 21 0
22 23 24 25 26 27 28 0
29 30 31 32 33 34 35 0
-1 -2 0
-1 -3 0
-1 -4 0
-1 -5 0
-1 -6 0
-1 -7 0
-2 -3 0
-2 -4 0
-2 -5 0
-2 -6 0
-2 -7 0
-3 -4 0
-3 -5 0
-3 -6 0
-3 -7 0
-4 -5 0
-4 -6 0
-4 -7 0
-5 -6 0
-5 -7 0
-6 -7 0
-8 -9 0
-8 -10 0
-8 -11 0
-8 -12 0
-8 -13 0
-8 -14 0
-9 -10 0
-9 -11 0
-9 -12 0
-9 -13 0
-9 -14 0
-10 -11 0
-10 -12 0
-10 -13 0
-10 -14 0
-11 -12 0
-11 -13 0
-11 -14 0
-12 -13 0
-12 -14 0
-13 -14 0
-15 -16 0
-15 -17 0
-15 -18 0
-15 -19 0
-15 -20 0
-15 -21 0
-16 -17 0
-16 -18 0
-16 -19 0
-16 -20 0
-16 -21 0
-17 -18 0
-17 -19 0
-17 -20 0
-17 -21 0
-18 -19 0
-18 -20 0
-18 -21 0
-19 -20 0
-19 -21 0
-20 -21 0
-22 -23 0
-22 -24 0
-22 -25 0
-22 -26 0
-22 -27 0
-22 -28 0
-23 -24 0
-23 -25 0
-23 -26 0
-23 -27 0
-23 -28 0
-24 -25 0
-24 -26 0
-24 -27 0
-24 -28 0
-25 -26 0
-25 -27 0
-25 -28 0
-26 -27 0
-26 -28 0
-27 -28 0
-29 -30 0
-29 -31 0
-29 -32 0
-29 -33 0
-29 -34 0
-29 -35 0
-30 -31 0
-30 -32 0
-30 -33 0
-30 -34 0
-30 -35 0
-31 -32 0
-31 -33 0
-31 -34 0
-31 -35 0
-32 -33 0
-32 -34 0
-32 -35 0
-33 -34 0
-33 -35 0
-34 -35 0
-1 -8 0
-1 -8 0
-1 -9 0
-2 -8 0
-2 -9 0
-2 -9 0
-3 -10 0
-3 -10 0
-4 -11 0
-4 -11 0
-5 -12 0
-5 -12 0
-6 -13 0
-6 -13 0
-7 -14 0
-7 -14 0
-8 -15 0
-8 -15 0
-8 -16 0
-9 -15 0
-9 -16 0
-9 -16 0
-10 -17 0
-10 -17 0
-11 -18 0
-11 -18 0
-12 -19 0
-12 -19 0
-13 -20 0
-13 -20 0
-14 -21 0
-14 -21 0
-15 -22 0
-15 -22 0
-15 -23 0
-16 -22 0
-16 -23 0
-16 -23 0
-17 -24 0
-17 -24 0
-18 -25 0
-18 -25 0
-19 -26 0
-19 -26 0
-20 -27 0
-20 -27 0
-21 -28 0
-21 -28 0
-22 -29 0
-22 -29 0
-22 -30 0
-23 -29 0
-23 -30 0
-23 -30 0
-24 -31 0
-24 -31 0
-25 -32 0
-25 -32 0
-26 -33 0
-26 -33 0
-27 -34 0
-27 -34 0
-28 -35 0
-28 -35 0
-1 -29 0
-1 -29 0
-1 -30 0
-2 -29 0
-2 -30 0
-2 -30 0
-3 -31 0
-3 -31 0
-4 -32 0
-4 -32 0
-5 -33 0
-5 -33 0
-6 -34 0
-6 -34 0
-7 -35 0
-7 -35 0
